(set-logic ALL)
(declare-const BAV1 Bool)
(declare-const BAV2 Bool)
(declare-const GEN2 Int)
(declare-const GEN1 Int)
(declare-fun v () (_ BitVec 3))
(declare-fun p () (_ BitVec 3))
(assert (= v (bvsmod (_ bv3 3) v)))
(assert (not (= v (_ bv0 3))))
(assert (= BAV1 (= v (bvsmod (_ bv3 3) v))))
(assert (= BAV2 (= v (_ bv0 3))))
(check-sat)
(get-model)